2,1,6,2,1,2,13,1,16,1,14,2,8,2,18,4,12,3,17,3,10,3,15,5,14,4,20,5,19,5,17,4,13,4,4,4,4,5;18,1,1,1,20,2,18,2,4,1,7,3,17,2,1,3,6,4,15,4,2,3,19,3,9,4,4,3,8,3,8,4,6,5,10,5,16,3,3,4,8,5,12,5;5,1,12,1,5,2,15,3,19,1,12,2,10,2,4,2,7,4,16,2,14,3,3,3,13,3,2,5,3,5;20,1,7,1,11,1,20,3,8,1,3,2,13,2,10,4,19,4,1,4,5,5,16,5;6,1,14,1,9,1,17,1,3,1,10,1,7,2,9,2,15,1,11,2,15,2,18,3,6,3,11,3,11,4,2,2,5,3,9,3,19,2,11,5,20,4,12,4,9,5,7,5,5,4,2,4,18,5,16,4,14,5,17,5,13,5,1,5;